NAME: st70-12-3
TYPE: TSP
COMMENT: min_cost = 319.19
DIMENSION: 12
EDGE_WEIGHT_TYPE: EUC_2D
NODE_COORD_SECTION
1 44 33
2 76 73
3 25 5
4 30 23
5 58 43
6 56 63
7 68 40
8 20 18
9 9 100
10 17 22
11 6 8
12 81 34
EOF
